(set-logic BV)

(synth-fun deobfucated ( (b (BitVec 64))  ) (BitVec 64)
	(
		(Start (BitVec 64)
			(
				(bvnot Start)
				(bvxor Start Start)
				(bvand Start Start)
				(bvor Start Start)
				(bvneg Start)
				(bvadd Start Start)
				(bvmul Start Start)
				(bvsub Start Start)
				b
			)
		)
	)
)

(constraint (= (deobfucated #x000000003a31eca9) #xf2c55706f885f86e))
(constraint (= (deobfucated #x0000000028917ace) #xf99236f347bb023b))
(constraint (= (deobfucated #x000000000cd86685) #xff5aff765e81bee6))
(constraint (= (deobfucated #x000000000f5aad91) #xff143f8a825eb3de))
(constraint (= (deobfucated #x000000001d78d932) #xfc9b65be54da323b))
(constraint (= (deobfucated #x0000000021092a80) #xfbbca2b6fbf1bfff))
(constraint (= (deobfucated #x0000000034f216d9) #xf50cc1c8a3b1fc0e))
(constraint (= (deobfucated #x00000000349e5efc) #xf52f47703db1f7ef))
(constraint (= (deobfucated #x000000001cf989e2) #xfcb876990c18547b))
(constraint (= (deobfucated #x0000000013bb2ed9) #xfe7aae2e50674c0e))
(constraint (= (deobfucated #x000000002890dd58) #xf99268dabd9ef1bf))
(constraint (= (deobfucated #x0000000027e28662) #xf9c9329c986d427b))
(constraint (= (deobfucated #x00000000201fc302) #xfbf80b4eb0f7f3fb))
(constraint (= (deobfucated #x000000002a9f557e) #xf8e754c758ef15fb))
(constraint (= (deobfucated #x000000000358096d) #xfff4d180f6b72796))
(constraint (= (deobfucated #x000000003780f008) #xf3f757eba6f0ffbf))
(constraint (= (deobfucated #x000000002ca5f942) #xf83686b60e3a8afb))
(constraint (= (deobfucated #x000000000c1585df) #xff6df9a3db6887be))
(constraint (= (deobfucated #x000000002253694c) #xfb65bcda5d68916f))
(constraint (= (deobfucated #x00000000017f1437) #xfffdc2c281d55c2e))
(check-synth)